Cu  N 
 1.0000000000000000
    14.0000000000000000    0.0000000000000000    0.0000000000000000
     0.0000000000000000   14.0000000000000000    0.0000000000000000
     0.0000000000000000    0.0000000000000000   14.0000000000000000
 Cu  N  
  10   2
Cartesian
  6.0146899999999999  6.2738600000000000  6.5507099999999996
  7.6175899999999999  7.9955999999999996  5.6704800000000004
  6.6695099999999998  5.4720500000000003  8.7633700000000001
  6.9469399999999997  7.8630399999999998  8.1679300000000001
  8.4061000000000003  6.1546300000000000  7.1862500000000002
  9.1570300000000007  8.4429499999999997  7.4524499999999998
  5.4465500000000002  8.6281900000000000  6.4665800000000004
  7.7013900000000000  5.7233099999999997  4.9297599999999999
  7.1411899999999999  4.1070099999999998  6.7393999999999998
  7.3561800000000002 10.0400500000000008  7.0381400000000003
  6.2118700000000002  4.8218699999999997 10.4443000000000001
  5.9519000000000002  4.4714999999999998 11.4814699999999998
