Cu  N 
 1.0000000000000000
    14.0000000000000000    0.0000000000000000    0.0000000000000000
     0.0000000000000000   14.0000000000000000    0.0000000000000000
     0.0000000000000000    0.0000000000000000   14.0000000000000000
 Cu  N  
  10   1
Cartesian
  6.9785000000000004  6.8401300000000003  8.0513499999999993
  7.1642099999999997  8.5788300000000000  5.7822899999999997
  8.2430500000000002  6.3785200000000000  5.8192000000000004
  9.0564199999999992  8.0367499999999996  7.4417700000000000
  9.0540599999999998  5.6137800000000002  7.9555800000000003
  5.8791599999999997  6.4544600000000001  5.6020099999999999
  5.1044099999999997  8.1116700000000002  7.2117599999999999
  4.8848700000000003  5.7594099999999999  7.7690000000000001
  6.9427800000000000  9.3088200000000008  8.2343399999999995
  6.9334100000000003  4.6982499999999998  6.9766700000000004
  8.1960300000000004  9.5949299999999997  6.9558299999999997
